====================================================================================================================
File name: 100_5_64_15.def
Creation date: Mon Nov 24 20:40:30 CET 2014
Website: http://imopse.ii.pwr.edu.pl/
Reference:
Myszkowski P. B., Skowronski M. E., Olech L., Oslizlo K.,
Hybrid Ant Colony Optimization in solving Multi-Skill Resource-Constrained Project Scheduling Problem,
Soft Computing, DOI: DOI 10.1007/s00500-014-1455-x
====================================================================================================================
General characteristics:
Tasks: 100
Resources: 5
Precedence relations: 64
Number of skill types: 14
====================================================================================================================
ResourceID 	 Salary 	 Skills
1	 	 	79.9	 	 Q10: 1 	  Q3: 1 	  Q9: 0 	  Q2: 2 	  Q4: 0 	  Q14: 0
2	 	 	36.3	 	 Q0: 0 	  Q9: 1 	  Q12: 1 	  Q8: 0 	  Q2: 1 	  Q11: 1
3	 	 	73.7	 	 Q12: 1 	  Q13: 1 	  Q7: 0 	  Q2: 2 	  Q1: 2 	  Q6: 2
4	 	 	34.0	 	 Q13: 2 	  Q10: 1 	  Q14: 2 	  Q0: 1 	  Q11: 1 	  Q4: 0
5	 	 	84.7	 	 Q2: 2 	  Q4: 1 	  Q6: 1 	  Q7: 1 	  Q10: 1 	  Q14: 2
====================================================================================================================
TaskID 	 Duration 	 Skill 	 Predecessor IDs
1	 	 	38	 Q12: 1
2	 	 	29	 Q0: 1
3	 	 	27	 Q0: 1
4	 	 	9	 Q12: 1
5	 	 	24	 Q2: 1
6	 	 	28	 Q6: 2
7	 	 	30	 Q6: 1
8	 	 	16	 Q4: 0
9	 	 	11	 Q9: 1	 	8
10	 	 	39	 Q13: 1
11	 	 	24	 Q6: 2
12	 	 	39	 Q9: 0
13	 	 	34	 Q7: 0
14	 	 	18	 Q11: 1
15	 	 	27	 Q6: 1
16	 	 	38	 Q4: 1
17	 	 	25	 Q9: 1	 	12
18	 	 	13	 Q6: 1
19	 	 	36	 Q0: 1
20	 	 	20	 Q13: 2
21	 	 	30	 Q3: 1
22	 	 	25	 Q13: 1
23	 	 	12	 Q9: 1
24	 	 	22	 Q7: 1
25	 	 	11	 Q8: 0
26	 	 	16	 Q12: 1
27	 	 	27	 Q0: 0
28	 	 	33	 Q9: 1
29	 	 	24	 Q0: 1
30	 	 	22	 Q13: 1
31	 	 	10	 Q13: 2	 	29
32	 	 	32	 Q12: 1
33	 	 	38	 Q0: 0	 	25
34	 	 	28	 Q6: 1
35	 	 	31	 Q12: 1
36	 	 	11	 Q13: 2	 	24
37	 	 	40	 Q7: 0
38	 	 	25	 Q10: 1	 	35
39	 	 	26	 Q14: 0	 	16	32	31
40	 	 	27	 Q13: 1
41	 	 	33	 Q14: 0
42	 	 	37	 Q14: 0
43	 	 	15	 Q12: 1
44	 	 	11	 Q7: 0
45	 	 	38	 Q14: 2	 	24	44
46	 	 	28	 Q12: 1	 	6
47	 	 	36	 Q6: 1	 	44
48	 	 	11	 Q0: 1	 	5
49	 	 	13	 Q9: 0	 	27
50	 	 	18	 Q6: 1
51	 	 	33	 Q14: 2	 	5
52	 	 	13	 Q9: 1	 	44	39
53	 	 	26	 Q0: 0
54	 	 	11	 Q7: 1	 	46
55	 	 	36	 Q2: 1
56	 	 	36	 Q14: 2	 	35
57	 	 	19	 Q9: 1	 	6
58	 	 	32	 Q10: 1
59	 	 	12	 Q4: 0	 	43
60	 	 	18	 Q4: 0	 	7
61	 	 	18	 Q1: 2	 	4
62	 	 	31	 Q13: 2
63	 	 	19	 Q9: 0
64	 	 	17	 Q0: 1
65	 	 	31	 Q13: 1
66	 	 	9	 Q7: 0
67	 	 	14	 Q13: 2	 	46
68	 	 	29	 Q14: 2	 	56	41	21
69	 	 	30	 Q7: 0	 	30
70	 	 	14	 Q9: 0	 	41
71	 	 	9	 Q3: 1
72	 	 	23	 Q8: 0	 	64	25	58	68	56
73	 	 	40	 Q12: 1	 	22	20
74	 	 	36	 Q9: 1
75	 	 	30	 Q14: 2	 	33
76	 	 	31	 Q0: 1
77	 	 	38	 Q2: 2	 	35
78	 	 	27	 Q9: 0	 	54	70	61	28	35
79	 	 	31	 Q6: 2
80	 	 	28	 Q10: 1
81	 	 	32	 Q6: 1	 	40
82	 	 	34	 Q11: 1	 	9
83	 	 	21	 Q6: 1	 	66
84	 	 	18	 Q0: 0
85	 	 	14	 Q6: 2	 	23
86	 	 	18	 Q6: 2
87	 	 	11	 Q0: 0	 	16	63
88	 	 	10	 Q11: 1	 	15	25
89	 	 	32	 Q6: 2
90	 	 	23	 Q13: 2	 	55
91	 	 	34	 Q13: 2	 	56
92	 	 	22	 Q11: 1	 	77
93	 	 	19	 Q4: 0
94	 	 	25	 Q10: 1	 	38	79
95	 	 	10	 Q14: 2	 	73	7
96	 	 	9	 Q9: 0	 	81
97	 	 	15	 Q0: 1
98	 	 	38	 Q4: 1	 	43
99	 	 	10	 Q13: 1	 	5	22
100	 	 	10	 Q13: 2	 	57
====================================================================================================================
